(set-logic QF_S)
(declare-fun A () String)
(assert (= (str.++  "ceecbccdffcbbbadbebccffebbdddddffddccdbedbdaacbbbafaacc" "")  (str.++  "ceecbccdffcbbbadbebccffeb" A "ccdbedbdaacbbbafaacc") ))
(assert (= (str.++  "cbbbecadcbecddbebeadfabdbdafefafaacffddbdebfdfcfedfddbe" "")  (str.++  A "adfabdbdafefafaacffddbdebfdfcfedfddbe" "") ))
(assert (= (str.++  "ecedaeaa" A "aeeeedccfacedececaaeecb")  (str.++  "ecedaeaa" A "aeeeedccfacedececaaeecb") ))
(assert (= (str.++  "aceabbdcbeffadcbabdaaaefacefeceeecaacbffebeeaaffaedeaff" "")  (str.++  "aceabbdcbeffadcbabdaaaefa" A "acbffebeeaaffaedeaff") ))
(assert (= (str.++  "aadbfdfcbeefd" A "cecdcbbc")  (str.++  "aadbfdfcbeefdcebbccdfdfcfbbfaeffcecedebacfdbbfacecdcbbc" "") ))
(assert (= (str.++  "ac" A "babcbeabdd")  (str.++  "acdbafcbcabacdcdddcdaadaabbcfcddadfdccebfcddcbabcbeabdd" "") ))
(assert (= (str.++  "cafcdafbecfdafbefbbecbaebadabeacaddebccecbcacbdaffafbef" "")  (str.++  "cafcdafbecfdafbefbbecbaebadabeacaddebccecbcacbdaffa" A "ef") ))
(assert (= (str.++  "dfaebcececcfedeffadafccbeeaceccc" A "cbefbfcfbfaddfeebacbd")  (str.++  "dfaebcececcfedeffadafccbeeacecccfbcbefbfcfbfaddfeebacbd" "") ))
(assert (= (str.++  "ebbfcacfafdf" A "afcedfbccffcdaffbbe" A "deabfccdafabcecccbda")  (str.++  "ebbfcacfafdf" A "afced" A "ccffcdaf" A "befbdeabfccdafabcecccbda") ))
(assert (= (str.++  "fafffebaccebdefaabeaaececdbacffffebddfcdcfcdbc" A "eabadbf")  (str.++  "fafffebaccebdefaabeaaececdbacffffebddfcdcfcdbcfbeabadbf" "") ))
(assert (= (str.++  "decadecebeebcdddfaefeffdaafdffaafbebcbbaeeaaadeebefdccb" "")  (str.++  "decadecebeebcdddfaefeffdaafdffaa" A "ebcbbaeeaaadeebefdccb") ))
(assert (= (str.++  "dafddfafacdfcdcababeaaeebcebcfcaeebeceddaffeccbb" A "bafda")  (str.++  "dafddfafacdfcdcababeaaeebcebcfcaeebeceddaffeccbbfbbafda" "") ))
(assert (= (str.++  "cfdeeedeeceaecffeffbfeefcbbbcaffcdaadfedf" A "deefffbffdbb")  (str.++  "cfdeeedeeceaecffef" A "feefcbbbcaffcdaadfedffbdeeff" A "ffdbb") ))
(assert (= (str.++  "aadfeac" A "dbadbbffdc" A "fdbbfecfbdbfcabdbcffdbbed" A "dacb" A "b")  (str.++  "aadfeacfbdbadbbffdcfbfdbbfec" A "dbfcabdbcffdbbedfbdacb" A "b") ))
(assert (= (str.++  "becceddd" A "cadbacaebddfafaabaeeeddbfdddceafcfbbceeebdeac")  (str.++  "beccedddfbcadbacaebddfafaabaeeeddbfdddceafc" A "bceeebdeac") ))
(assert (= (str.++  "edfabfdaabaeccecedcaaeeedcdaccabafebddddcdfedffbaaaeded" "")  (str.++  "edfabfdaabaeccecedcaaeeedcdaccabafebddddcdfedf" A "aaaeded") ))
(assert (= (str.++  "cacaccbebfaccfeeafffceecdccfceacbfadcaaaacceca" A "bbbbaee")  (str.++  "cacaccbebfaccfeeafffceecdccfceacbfadcaaaaccecafbbbbbaee" "") ))
(assert (= (str.++  "fdddbeaef" A "bbddaaadeaabdc" A "fcdbedcabffeeccbfdddfbfaaaac")  (str.++  "fdddbeaeffbbbddaaadeaabdcfbfcdbedcabffeeccbfdddfbfaaaac" "") ))
(assert (= (str.++  "bfeccedffcdfcacbced" A "dcdaeafcefdaeebfedcfdcffddefceb" A "c")  (str.++  "bfeccedffcdfcacbced" A "dcdaeafcefdaeebfedcfdcffddefcebfbc") ))
(assert (= (str.++  "aadffdaafbafdbc" A "cbcabffbdfcbdbffbabfaabffdaadabeabbbae")  (str.++  "aadffdaafbafdbcfbcbcabffbdfcbdbffbabfaabffdaadabeabbbae" "") ))
(assert (= (str.++  "edfccdbcabdfbafdeebdbdcccbabdefdeacbcbeadadcfedaceefbfd" "")  (str.++  "edfccdbcabdfbafdeebdbdcccbabdefdeacbcbeadadcfedacee" A "fd") ))
(assert (= (str.++  "dafaafeeebaefcabdcabddacffcb" A "bbaccbadcedfdecccfadcdcda")  (str.++  "dafaafeeebaefcabdcabddacffcbfbbbaccbadcedfdecccfadcdcda" "") ))
(assert (= (str.++  "febfdfdbcbcfdfbaddccbebafdfeffcbcbddefedccefabeaebceeea" "")  (str.++  "febfdfdbcbcfd" A "addccbebafdfeffcbcbddefedccefabeaebceeea") ))
(assert (= (str.++  "fcebdfeaadbaeefbbbbbceccfdbebdcaeabcbcadfdccffbffadfecf" "")  (str.++  "fcebdfeaadbaeefbbbbbceccfdbebdcaeabcbcadfdccf" A "ffadfecf") ))
(assert (= (str.++  "deedecbfebdfcaacdbfcbbebfccfeafcbbfacacbdadf" A "cdeedbafc")  (str.++  "deedecbfebdfcaacdbfcbbebfccfeafcbbfacacbdadf" A "cdeedbafc") ))
(assert (= (str.++  "cdfebdcdadcfdedeceae" A "bebcefaafbaedcafecadbdbacfbacabff")  (str.++  "cdfebdcdadcfdedeceae" A "bebcefaa" A "aedcafecadbdbac" A "acabff") ))
(assert (= (str.++  "ecafefbfefedffefeeeddaadabfaebddbabdeacdafdefccbdafbcbd" "")  (str.++  "ecafe" A "fefedffefeeeddaadabfaebddbabdeacdafdefccbda" A "cbd") ))
(assert (= (str.++  "daddabafffaabbbdeeddbaafffbebe" A "deff" A "bbcddcaebfacfaebe")  (str.++  "daddabafffaabbbdeeddbaaff" A "ebe" A "defffbbbcddcaebfacfaebe") ))
(assert (= (str.++  "aa" A "aceabafebdfcbadebaedbc" A "dbefdefdadffaecadbacefaeada")  (str.++  "aa" A "aceabafebdfcbadebaedbcfbdbefdefdadffaecadbacefaeada") ))
(assert (= (str.++  "abaabdfffeffccdecaeaddddefdacafcfeabaafaaea" A "bcfaacaaab")  (str.++  "abaabdfffeffccdecaeaddddefdacafcfeabaafaaea" A "bcfaacaaab") ))
(assert (= (str.++  "bcedbcecaabac" A "cfddeeebfcdafabfadbaecfdaabfbbccbeafdcbc")  (str.++  "bcedbcecaabacfbcfddeeebfcdafabfadbaecfdaabfbbccbeafdcbc" "") ))
(assert (= (str.++  "acedfacadceacbbcdaecdeefaddbff" A "fdafccafdfeefacafecbbdc")  (str.++  "acedfacadceacbbcdaecdeefaddbfffbfdafccafdfeefacafecbbdc" "") ))
(assert (= (str.++  "fce" A "bcedddacddfdbedabcccedfdedceebbdaaedebfbaefabaeaeb")  (str.++  "fcefbbcedddacddfdbedabcccedfdedceebbdaaedebfbaefabaeaeb" "") ))
(assert (= (str.++  "deacfdeafaeecdaeaabacddddebbfcfbbeabdeccabefedbdb" A "fbbf")  (str.++  "deacfdeafaeecdaeaabacddddebbfc" A "beabdeccabefedbdbfb" A "bf") ))
(assert (= (str.++  "fa" A "fbbcadfeadfadefedefdcdfeedeeaabfcfdcdbbeabafebeeaef")  (str.++  "fa" A "fbbcadfeadfadefedefdcdfeedeeaabfcfdcdbbeabafebeeaef") ))
(assert (= (str.++  "cfdcdbdbeeafcedcdffebdcacedffcffceecadae" A "bfda" A "cadaafe")  (str.++  "cfdcdbdbeeafcedcdffebdcacedffcffceecadae" A "bfda" A "cadaafe") ))
(assert (= (str.++  "aedbbddb" A "cebbcadceaddfffffaaffaddfacebccdedeeedcb" A "deb")  (str.++  "aedbbddbfbcebbcadceaddfffffaaffaddfacebccdedeeedcbfbdeb" "") ))
(assert (= (str.++  "cfdddbeadbbabfadbddcceffddbcdbbacfedcaab" A "adedeaeebfddf")  (str.++  "cfdddbeadbbabfadbddcceffddbcdbbacfedcaab" A "adedeaeebfddf") ))
(assert (= (str.++  "fedebdfabfddbcaafbdcbddbcfdfebfcaefdedbcdbdefcbedeccafe" "")  (str.++  "fedebdfabfddbcaa" A "dcbddbcfdfebfcaefdedbcdbdefcbedeccafe") ))
(assert (= (str.++  "fdcadedabedcdbdabecbacfddfcedfccacecfc" A "aafcddadefbf" A "b")  (str.++  "fdcadedabedcdbdabecbacfddfcedfccacecfcfbaafcddade" A "f" A "b") ))
(assert (= (str.++  "caceadacacdeaebfdb" A "caeacedcceaacabeaeeefcdefdccddbbeac")  (str.++  "caceadacacdeaebfdbfbcaeacedcceaacabeaeeefcdefdccddbbeac" "") ))
(assert (= (str.++  "fabdffcfaeceafe" A "ccabaddfdaeafeecfdbdbfeacdfcebeefdabbe")  (str.++  "fabdffcfaeceafe" A "ccabaddfdaeafeecfdbdbfeacdfcebeefdabbe") ))
(assert (= (str.++  "bdccdeccdfaadedfafadeecdfcbfbfeddefededfbffdddcadae" A "bb")  (str.++  "bdccdeccdfaadedfafadeecdfcb" A "feddefeded" A "ffdddcadae" A "bb") ))
(assert (= (str.++  "cbcaeaebcdffeaebfbbcebcefcacceacadcefeaedcdfbcfadcacbdc" "")  (str.++  "cbcaeaebcdffeaebfbbcebcefcacceacadcefeaedcd" A "cfadcacbdc") ))
(assert (= (str.++  "adbbfeccbaeffacebfdfeeecededdedaaafdf" A "bfabadadfbefafac")  (str.++  "adbbfeccbaeffacebfdfeeecededdedaaafdf" A "bfabadadfbefafac") ))
(assert (= (str.++  "dedfcacdadcdbaebdebdddedffc" A "aeffc" A "effcacbcddcddabdfef")  (str.++  "dedfcacdadcdbaebdebdddedffcfbaeffc" A "effcacbcddcddabdfef") ))
(assert (= (str.++  "cccbdacddfcdcbffebcefacaec" A "deceaabcdbecfafcfcdaaababec")  (str.++  "cccbdacddfcdcbffebcefacaecfbdeceaabcdbecfafcfcdaaababec" "") ))
(assert (= (str.++  "bdbcccbdfcfdaebbbfeccbcbecbdccaceafdfdcdfaba" A "edefcbfbc")  (str.++  "bdbcccbdfcfdaebbbfeccbcbecbdccaceafdfdcdfabafbedefcb" A "c") ))
(assert (= (str.++  "afedcbacedaccebbdfdedcdadefabcaaeaccaeedeaeecefebedd" A "c")  (str.++  "afedcbacedaccebbdfdedcdadefabcaaeaccaeedeaeecefebedd" A "c") ))
(assert (= (str.++  "eddefedbefdfcfdafdfafddaaaeedeefabeeaacdfbadceeeffcbbfd" "")  (str.++  "eddefedbefdfcfdafdfafddaaaeedeefabeeaacd" A "adceeeffcbbfd") ))
(assert (= (str.++  "bbaeebbfbeebacdeeaddeefddeeeacbcccdcdaeaabaeccdfcdcccbe" "")  (str.++  "bbaeebb" A "eebacdeeaddeefddeeeacbcccdcdaeaabaeccdfcdcccbe") ))
(assert (= (str.++  "cdeefcedcfcdcdadafbbbceebaaeaecaddeaebafbfafc" A "faedcbdc")  (str.++  "cdeefcedcfcdcdadafbbbceebaaeaecaddeaeba" A "fafcfbfaedcbdc") ))
(assert (= (str.++  "cabfddbdedbcdcebfcbebcedeececbefeefccfdfaebc" A "eaaafcdfa")  (str.++  "cabfddbdedbcdcebfcbebcedeececbefeefccfdfaebcfbeaaafcdfa" "") ))
(assert (= (str.++  "dbbecdffaacfcadbcfaefbbbabceef" A "dfeccdafeaacfadbddbbedd")  (str.++  "dbbecdffaacfcadbcfae" A "bbabceeffbdfeccdafeaacfadbddbbedd") ))
(assert (= (str.++  "ededbaddcdbadfccaddbabddedfadadaed" A "bdaccefbeffbfdafecd")  (str.++  "ededbaddcdbadfccaddbabddedfadadaed" A "bdaccefbef" A "fdafecd") ))
(assert (= (str.++  "edfdbbfceddaefaaadfa" A "bbbafeeadc" A "cceeafaaefacbebadbdea")  (str.++  "edfdbbfceddaefaaadfa" A "bbbafeeadc" A "cceeafaaefacbebadbdea") ))
(assert (= (str.++  "caedcbeaafaadbafeafdd" A "bdcaddefadcebaabdfcdfbafbeebeeeb")  (str.++  "caedcbeaafaadbafeafddfbbdcaddefadcebaabdfcd" A "afbeebeeeb") ))
(assert (= (str.++  "fafbfd" A "decdbddbdfcebbfcabbaaddbaefafcebbbfefbddebbefdc")  (str.++  "fa" A "fdfbdecdbddbdfcebbfcabbaaddbaefafcebbbfefbddebbefdc") ))
(assert (= (str.++  "cffffdedfeafddcededadfedfdecbcaf" A "ce" A "bbeecbacaadbccbaa")  (str.++  "cffffdedfeafddcededadfedfdecbcaf" A "cefbbbeecbacaadbccbaa") ))
(assert (= (str.++  "bcadabccbebcccdbfdbeffe" A "dedbaceb" A "bcdaefdfdccadefbdbee")  (str.++  "bcadabccbebcccdbfdbeffefbdedbaceb" A "bcdaefdfdccadefbdbee") ))
(assert (= (str.++  "acbfca" A "feebddaddaecaebddfbbcfbfdafefeaceedaaecfedeaacd")  (str.++  "acbfca" A "feebddaddaecaebdd" A "bc" A "fdafefeaceedaaecfedeaacd") ))
(assert (= (str.++  "debddecfeebfbcebecccabbbcdbecbbccaecbddbebdfeddadcfdbea" "")  (str.++  "debddecfeeb" A "cebecccabbbcdbecbbccaecbddbebdfeddadcfdbea") ))
(assert (= (str.++  "efddeefdfeacdaeeadaeccb" A "afebbadcffdaceda" A "ebacafcefabb")  (str.++  "efddeefdfeacdaeeadaeccbfbafebbadcffdaceda" A "ebacafcefabb") ))
(assert (= (str.++  "ebefbabcfcbebcaeecbfeebbbcaafda" A "abafabefdbbbdebcecadab")  (str.++  "ebe" A "abcfcbebcaeecbfeebbbcaafda" A "abafabefdbbbdebcecadab") ))
(assert (= (str.++  "fdccaabdbeccbaebfacfdfdadeadbccdcfadffbeffbbafaecfccefb" "")  (str.++  "fdccaabdbeccbaebfacfdfdadeadbccdcfadffbeffbbafaecfcce" A) ))
(assert (= (str.++  "dccefecdecfecbaabdffeeaabdbdeafededff" A "afaeeaffeaeeebfa")  (str.++  "dccefecdecfecbaabdffeeaabdbdeafededff" A "afaeeaffeaeeebfa") ))
(assert (= (str.++  "acfaeddceccaceafeaeefcefecebbdcaca" A "ebbfecefcdeafcdcceb")  (str.++  "acfaeddceccaceafeaeefcefecebbdcacafbebbfecefcdeafcdcceb" "") ))
(assert (= (str.++  "cebefaa" A "ecebbacecedc" A "fefdfdcaaaabdfffd" A "cedbcffeccdda")  (str.++  "cebefaa" A "ecebbacecedc" A "fefdfdcaaaabdfffd" A "cedbcffeccdda") ))
(assert (= (str.++  "db" A "ceeb" A "cffccecffcefceedafaedabadbcebdfecbaafddaddddb")  (str.++  "db" A "ceeb" A "cffccecffcefceedafaedabadbcebdfecbaafddaddddb") ))
(assert (= (str.++  "babcbfceaebbeecbcbdaddfbed" A "fcadfdfafcaeeedaffbdfcdecea")  (str.++  "babcbfceaebbeecbcbdaddfbedfbfcadfdfafcaeeedaffbdfcdecea" "") ))
(assert (= (str.++  "bcffdeeeeaddadccaddbdddaccbcdebfcefbfbfbbbdaeebaedbabae" "")  (str.++  "bcffdeeeeaddadccaddbdddaccbcdebfce" A "fb" A "bbdaeebaedbabae") ))
(assert (= (str.++  "ecfdaacaebafcabfbfdecbcbadffebfecdfdabeeafd" A "dbddfacdbf")  (str.++  "ecfdaacaebafcabfbfdecbcbadffebfecdfdabeeafd" A "dbddfacdbf") ))
(assert (= (str.++  "bfbdadfdcadbaffcffcdadecbfcba" A "cefaffdceaabfeafcebbfaea")  (str.++  "b" A "dadfdcadbaffcffcdadecbfcba" A "cefaffdceaabfeafcebbfaea") ))
(assert (= (str.++  "ebdbcbbfefefbfbc" A "fdddabdacfdebbadfafdafccffdbdbffccbbf")  (str.++  "ebdbcbbfefe" A "fbc" A "fdddabdacfdebbadfafdafccffdbdbffccbbf") ))
(assert (= (str.++  "ffecbdcaadccdfcbceeceeacffffdfecdafcafaafffbafefefbedff" "")  (str.++  "ffecbdcaadccdfcbceeceeacffffdfecdafcafaaff" A "afefefbedff") ))
(assert (= (str.++  "baaaafcdcbeddbeafdfdfdbacbbfdcbceeadebbcfaccecaafbddded" "")  (str.++  "baaaafcdcbeddbeafdfdfdbacbbfdcbceeadebbcfaccecaa" A "ddded") ))
(assert (= (str.++  "ccbcefacceccebbeaafbcadcebafbaeacdfeffdeccdbefc" A "abcddf")  (str.++  "ccbcefacceccebbeaa" A "cadcebafbaeacdfeffdeccdbefcfbabcddf") ))
(assert (= (str.++  "bcfaffafffcaaeebcdcdcccdfdbedadfcdccaceacefeaabcefebd" A)  (str.++  "bcfaffafffcaaeebcdcdcccdfdbedadfcdccaceacefeaabcefebd" A) ))
(assert (= (str.++  "dbfcebaaebbcfce" A "daceadabedeeaedeffefdeaceddcecaddceccb")  (str.++  "dbfcebaaebbcfcefbdaceadabedeeaedeffefdeaceddcecaddceccb" "") ))
(assert (= (str.++  "ebfcfdaefaadbabbafefebecdaaadfdabdfaacbeace" A "ceeabdcdca")  (str.++  "ebfcfdaefaadbabbafefebecdaaadfdabdfaacbeacefbceeabdcdca" "") ))
(assert (= (str.++  "aadabacfcdeccaacdefdebeefbecced" A "afe" A "bcadbcffddeaeccaf")  (str.++  "aadabacfcdeccaacdefdebeefbeccedfbafe" A "bcadbcffddeaeccaf") ))
(assert (= (str.++  "fcbbdfebdecec" A "febfefdbfaeaaabdbbccdeebdeb" A "ecebfccdaef")  (str.++  "fcbbdfebdecec" A "febfefdbfaeaaabdbbccdeebdeb" A "ecebfccdaef") ))
(assert (= (str.++  "bbcdbdbdcbaaebadfeedaabc" A "efa" A "fbedcaacdbcbbdfeeeeaabac")  (str.++  "bbcdbdbdcbaaebadfeedaabc" A "efa" A "fbedcaacdbcbbdfeeeeaabac") ))
(assert (= (str.++  "dcaeceecfbfeeadebfabebdcafdddfeadddfaafcecaedacdfdcacfa" "")  (str.++  "dcaeceec" A "feeadebfabebdcafdddfeadddfaafcecaedacdfdcacfa") ))
(assert (= (str.++  "dbdbfaffbfcf" A "aab" A "bdcfaacdfaffccaabbbcdcfcebbbebbffdff")  (str.++  "dbdbfaffbfcf" A "aabfbbdcfaacdfaffccaabbbcdcfcebbbebbffdff") ))
(assert (= (str.++  "ccdbadefdaefdadddfaddacdcaccbdfddfffbeefeffd" A "eeedccbea")  (str.++  "ccdbadefdaefdadddfaddacdcaccbdfddfffbeefeffd" A "eeedccbea") ))
(assert (= (str.++  "eaaefcacd" A "babecfdaebcadddbbfebbdedcccebdbebccdceddecda")  (str.++  "eaaefcacdfbbabecfdaebcadddbbfebbdedcccebdbebccdceddecda" "") ))
(assert (= (str.++  "feeabcccdfecdacdffeeaccfecabfbdaedfcdacdccefaaeeddffdfe" "")  (str.++  "feeabcccdfecdacdffeeaccfecab" A "daedfcdacdccefaaeeddffdfe") ))
(assert (= (str.++  "bdffcecbadbbfabababcdbdf" A "feecbcefabcedcbecccaabfffccfa")  (str.++  "bdffcecbadbbfabababcdbdf" A "feecbcefabcedcbecccaabfffccfa") ))
(assert (= (str.++  "daaecd" A "fceceeeaaadadcfaffebbbadefccadbefbbecebdebedfda")  (str.++  "daaecd" A "fceceeeaaadadcfaffebbbadefccadbe" A "becebdebedfda") ))
(assert (= (str.++  "dacbfed" A "becfcdebbabceaaceeebd" A "facddbbdbbadecceeabebed")  (str.++  "dacbfedfbbecfcdebbabceaaceeebd" A "facddbbdbbadecceeabebed") ))
(assert (= (str.++  "accefcbbacebdabbebbbabbaddbadaaeeedddcea" A "a" A "bdedbfcfef")  (str.++  "accefcbbacebdabbebbbabbaddbadaaeeedddceafba" A "bdedbfcfef") ))
(assert (= (str.++  "ecadedfffdfeecbbdcfeeddaeffaeaabbedfdbfbbccedaeacfabbca" "")  (str.++  "ecadedfffdfeecbbdcfeeddaeffaeaabbedfdb" A "bccedaeacfabbca") ))
(assert (= (str.++  "fcabfebcaedcaaabab" A "bbdcfeeceab" A "ededaeecfaedbbbcfdebcd")  (str.++  "fcabfebcaedcaaababfbbbdcfeeceab" A "ededaeecfaedbbbcfdebcd") ))
(assert (= (str.++  "fcdadbadfdcdcaecdafacdfecbaceebabfecbcafffcabcebfbfccba" "")  (str.++  "fcdadbadfdcdcaecdafacdfecbaceebabfecbcafffcabceb" A "fccba") ))
(assert (= (str.++  "cfdeffadfadccfecceffe" A "cafeefdbbeabcecdfdffa" A "addecfade")  (str.++  "cfdeffadfadccfecceffefbcafeefdbbeabcecdfdffafbaddecfade" "") ))
(assert (= (str.++  "ecadffcafffdeeccdbdffabdcffeddecfaedddeabaaebbfebbcdfbc" "")  (str.++  "ecadffcafffdeeccdbdffabdcffeddecfaedddeabaaebbfebbcd" A "c") ))
(assert (= (str.++  "daeabcaecfadcfacffeecebfbcecceafadebbbbfafaeacddbffaebf" "")  (str.++  "daeabcaecfadcfacffeeceb" A "cecceafadebbbbfafaeacddbffaebf") ))
(assert (= (str.++  "aeefdcddaedfdcebafccbceabaaecdcdbcbadebdbb" A "bdefdefbdcf")  (str.++  "aeefdcddaedfdcebafccbceabaaecdcdbcbadebdbb" A "bdefde" A "dcf") ))
(assert (= (str.++  "fd" A "cfacbdbacbebcadcbeefeaddbbdfbeccdacefebbfccfaffabee")  (str.++  "fdfbcfacbdbacbebcadcbeefeaddbbd" A "eccdacefebbfccfaffabee") ))
(assert (= (str.++  "edafcaacdeadebcfbfbcbdaceeeeacadeeabdbebddfdbdfacfcabfa" "")  (str.++  "edafcaacdeadebc" A "fbcbdaceeeeacadeeabdbebddfdbdfacfcabfa") ))
(assert (= (str.++  "acbcfccadfadbfcaeafacbadadadfeccabfafecffbfadbdabcaaaac" "")  (str.++  "acbcfccadfadbfcaeafacbadadadfeccabfafecf" A "fadbdabcaaaac") ))
(assert (= (str.++  "efdacbca" A "bddbcfeedbbcdfdedfbffa" A "caadcbbdbbbeabeedacbb")  (str.++  "efdacbcafbbddbcfeedbbcdfded" A "ffafbcaadcbbdbbbeabeedacbb") ))
(assert (= (str.++  "bcbfdafcebfbbbfadaddadebddcdce" A "eefdaceeafdfdfdffdfdffd")  (str.++  "bcbfdafcebfbbbfadaddadebddcdce" A "eefdaceeafdfdfdffdfdffd") ))
(assert (= (str.++  "eaebcabdfcbeecacefcdeebcdfcfaad" A "efaffbabfdadabbb" A "ebdf")  (str.++  "eaebcabdfcbeecacefcdeebcdfcfaad" A "efaffbabfdadabbbfbebdf") ))
(assert (= (str.++  "ed" A "fbefcbfeafeacecbafedcadebebdcadbfaefecdbbafea" A "cfdd")  (str.++  "edfb" A "efcbfeafeacecbafedcadebebdcadbfaefecdbbafeafbcfdd") ))
(assert (= (str.++  A "ebbcdbc" A "bbeeeabeeedefdfacfdddbefadaaebeafac" A "beebebf")  (str.++  "fbebbcdbcfbbbeeeabeeedefdfacfdddbefadaaebeafac" A "beebebf") ))
(assert (= (str.++  "ffcafdaeb" A "ac" A "ebcbf" A "eebedabeaaebfbfcaaecaecaaedbfdbce")  (str.++  "ffcafdaebfbac" A "ebcbffbeebedabeaaebfbfcaaecaecaaedbfdbce") ))
(assert (= (str.++  "eaefbdbedcaa" A "cd" A "dbfaaedaecbcaddcdefaefacaeb" A "fbbaffbd")  (str.++  "eaefbdbedcaa" A "cdfbdbfaaedaecbcaddcdefaefacaebfb" A "baf" A "d") ))
(assert (= (str.++  "dfdbdececaefdccdde" A "fee" A "feceeafdecbcbddfabadfabbdcfeca")  (str.++  "dfdbdececaefdccddefbfeefbfeceeafdecbcbddfabadfabbdcfeca" "") ))
(assert (= (str.++  "ceacfbddfad" A "ecabfcbcefefcfffdeecbad" A "adfeccaebcbafdddf")  (str.++  "ceac" A "ddfad" A "ecabfcbcefefcfffdeecbad" A "adfeccaebcbafdddf") ))
(assert (= (str.++  "efdefbedafdaaedebcfceaadaaafcaacdacdcccccbebfeebea" A "ecf")  (str.++  "efde" A "edafdaaedebcfceaadaaafcaacdacdcccccbebfeebea" A "ecf") ))
(assert (= (str.++  "fb" A "edfbbdebdfcdccbbbfaaeedbacffcceeeebf" A "bfebfdbadbead")  (str.++  "fb" A "edfbbdebdfcdccbbbfaaeedbacffcceeeebf" A "bfebfdbadbead") ))
(assert (= (str.++  "fcadcfcaffddedbbedefbafbbdcaffdbeaf" A "deeedbedeafddeeaca")  (str.++  "fcadcfcaffddedbbede" A "a" A "bdcaffdbeaf" A "deeedbedeafddeeaca") ))
(assert (= (str.++  "cd" A "ecefaddaddeddeecafcfabebcfbfd" A "ffdeffcbebcfcdfabfeb")  (str.++  "cd" A "ecefaddaddeddeecafcfabebc" A "fd" A "ffdeffcbebcfcdfabfeb") ))
(assert (= (str.++  "bdccdbf" A "cecdaceafafcbebbd" A "cdfaedccaadabaeabbabccfffef")  (str.++  "bdccdbf" A "cecdaceafafcbebbd" A "cdfaedccaadabaeabbabccfffef") ))
(assert (= (str.++  A "bdddacfdeabadeeaedfceebdcd" A "fadbecfdbddaebdbcfbeeafcd")  (str.++  A "bdddacfdeabadeeaedfceebdcd" A "fadbecfdbddaebdbc" A "eeafcd") ))
(assert (= (str.++  "dacbdddbfddbfddfdaa" A "cfddfdcecbebfeaffde" A "afdafcfefdcfa")  (str.++  "dacbdddbfddbfddfdaafbcfddfdcecbebfeaffde" A "afdafcfefdcfa") ))
(assert (= (str.++  "bffbcaabcebbdbfbcedbdfcaaeffcbdfcbddafaadd" A "bfbcfcabefd")  (str.++  "bffbcaabcebbdbfbcedbdfcaaeffcbdfcbddafaaddfbb" A "cfcabefd") ))
(check-sat)
(get-model)
